experiments/eusolverbv/6/TrainGenes/11111110110101010111101111011101110010000100000/125_.sl

(set-logic BV)

(define-fun shr1 ((x (BitVec 64))) (BitVec 64) (bvlshr x #x0000000000000001))
(define-fun shr4 ((x (BitVec 64))) (BitVec 64) (bvlshr x #x0000000000000004))
(define-fun shr16 ((x (BitVec 64))) (BitVec 64) (bvlshr x #x0000000000000010))
(define-fun shl1 ((x (BitVec 64))) (BitVec 64) (bvshl x #x0000000000000001))
(define-fun if0 ((x (BitVec 64)) (y (BitVec 64)) (z (BitVec 64))) (BitVec 64) (ite (= x #x0000000000000001) y z))
(define-fun func26  ((A (BitVec 64)) (B (BitVec 64)) (C (BitVec 64)) (D (BitVec 64)) ) (BitVec 64) (bvand (bvlshr (bvlshr C  D ) B ) A ))
(define-fun func27  ((A (BitVec 64)) (B (BitVec 64)) (C (BitVec 64)) ) (BitVec 64) (bvand (bvlshr B  C ) A ))
(define-fun func28  ((A (BitVec 64)) (B (BitVec 64)) ) (BitVec 64) (bvand (bvlshr B  #x0000000000000001 ) A ))
(define-fun func29  ((A (BitVec 64)) (B (BitVec 64)) ) (BitVec 64) (bvand (bvlshr B  #x0000000000000010 ) A ))
(define-fun func30  ((A (BitVec 64)) (B (BitVec 64)) ) (BitVec 64) (bvand (bvlshr B  #x0000000000000004 ) A ))
(define-fun func31  ((A (BitVec 64)) (B (BitVec 64)) ) (BitVec 64) (bvand (bvlshr A  B ) #x0000000000000001 ))
(define-fun func32  ((A (BitVec 64)) ) (BitVec 64) (bvand A  #x0000000000000001 ))
(define-fun func33  ((A (BitVec 64)) (B (BitVec 64)) (C (BitVec 64)) (D (BitVec 64)) ) (BitVec 64) (bvlshr (bvlshr (bvlshr C  D ) B ) A ))
(define-fun func34  ((A (BitVec 64)) (B (BitVec 64)) (C (BitVec 64)) ) (BitVec 64) (bvlshr (bvlshr (bvlshr C  #x0000000000000010 ) B ) A ))
(define-fun func35  ((A (BitVec 64)) (B (BitVec 64)) (C (BitVec 64)) ) (BitVec 64) (bvlshr (bvlshr B  C ) A ))
(define-fun func36  ((A (BitVec 64)) (B (BitVec 64)) ) (BitVec 64) (bvlshr (bvlshr B  #x0000000000000010 ) A ))
(define-fun func37  ((A (BitVec 64)) (B (BitVec 64)) ) (BitVec 64) (bvlshr (bvlshr B  #x0000000000000004 ) A ))
(define-fun func38  ((A (BitVec 64)) (B (BitVec 64)) ) (BitVec 64) (bvlshr (bvlshr B  #x0000000000000001 ) A ))
(define-fun func39  ((A (BitVec 64)) (B (BitVec 64)) ) (BitVec 64) (bvlshr (bvlshr A  B ) #x0000000000000001 ))
(define-fun func40  ((A (BitVec 64)) (B (BitVec 64)) ) (BitVec 64) (bvlshr (bvlshr A  B ) #x0000000000000004 ))
(define-fun func41  ((A (BitVec 64)) (B (BitVec 64)) ) (BitVec 64) (bvlshr A  B ))
(define-fun func42  ((A (BitVec 64)) (B (BitVec 64)) (C (BitVec 64)) ) (BitVec 64) (bvlshr (bvshl B  C ) A ))
(define-fun func43  ((A (BitVec 64)) (B (BitVec 64)) ) (BitVec 64) (bvlshr (bvshl B  #x0000000000000001 ) A ))
(define-fun func44  ((A (BitVec 64)) (B (BitVec 64)) (C (BitVec 64)) ) (BitVec 64) (bvlshr (bvadd B  C ) A ))
(define-fun func45  ((A (BitVec 64)) (B (BitVec 64)) ) (BitVec 64) (bvlshr (bvnot B ) A ))
(define-fun func46  ((A (BitVec 64)) ) (BitVec 64) (bvlshr (bvnot #x0000000000000000 ) A ))
(define-fun func47  ((A (BitVec 64)) ) (BitVec 64) (bvlshr (bvnot A ) #x0000000000000010 ))
(define-fun func48  ((A (BitVec 64)) (B (BitVec 64)) (C (BitVec 64)) ) (BitVec 64) (bvor (bvlshr B  C ) A ))
(define-fun func49  ((A (BitVec 64)) ) (BitVec 64) (bvor A  #x0000000000000001 ))
(define-fun func50  ((A (BitVec 64)) (B (BitVec 64)) (C (BitVec 64)) ) (BitVec 64) (bvshl (bvlshr B  C ) A ))
(define-fun func51  ((A (BitVec 64)) (B (BitVec 64)) ) (BitVec 64) (bvshl (bvlshr B  #x0000000000000001 ) A ))
(define-fun func52  ((A (BitVec 64)) (B (BitVec 64)) ) (BitVec 64) (bvshl (bvlshr A  B ) #x0000000000000001 ))
(define-fun func54  ((A (BitVec 64)) (B (BitVec 64)) (C (BitVec 64)) ) (BitVec 64) (bvshl (bvshl B  C ) A ))
(define-fun func55  ((A (BitVec 64)) (B (BitVec 64)) ) (BitVec 64) (bvshl (bvshl B  #x0000000000000001 ) A ))
(define-fun func56  ((A (BitVec 64)) (B (BitVec 64)) ) (BitVec 64) (bvshl (bvshl A  B ) #x0000000000000001 ))
(define-fun func57  ((A (BitVec 64)) (B (BitVec 64)) ) (BitVec 64) (bvshl (bvnot B ) A ))
(define-fun func58  ((A (BitVec 64)) ) (BitVec 64) (bvshl (bvnot A ) #x0000000000000001 ))
(define-fun func59  ((A (BitVec 64)) (B (BitVec 64)) (C (BitVec 64)) ) (BitVec 64) (bvadd (bvlshr B  C ) A ))
(define-fun func60  ((A (BitVec 64)) ) (BitVec 64) (bvadd A  #x0000000000000001 ))
(define-fun func61  ((A (BitVec 64)) (B (BitVec 64)) (C (BitVec 64)) ) (BitVec 64) (bvadd (bvshl B  C ) A ))
(define-fun func62  ((A (BitVec 64)) (B (BitVec 64)) ) (BitVec 64) (bvadd (bvshl B  #x0000000000000001 ) A ))
(define-fun func63  ((A (BitVec 64)) ) (BitVec 64) (bvnot (bvshl A  #x0000000000000001 )))
(synth-fun f ( (x (BitVec 64))) (BitVec 64)
(
(Start (BitVec 64) (
   #x0000000000000000
   #x0000000000000001
   x
   (func26 Start Start Start Start)
   (func27 Start Start Start)
   (func28 Start Start)
   (func29 Start Start)
   (func30 Start Start)
   (func31 Start Start)
   (func32 Start)
   (func34 Start Start Start)
   (func35 Start Start Start)
   (func37 Start Start)
   (func39 Start Start)
   (func41 Start Start)
   (func43 Start Start)
   (func44 Start Start Start)
   (func45 Start Start)
   (func46 Start)
   (func48 Start Start Start)
   (func49 Start)
   (func50 Start Start Start)
   (func51 Start Start)
   (func54 Start Start Start)
   (func55 Start Start)
   (func56 Start Start)
   (func58 Start)
   (func59 Start Start Start)
   (func60 Start)
   (func63 Start)
   (bvnot Start)
   (shl1 Start)
   (shr1 Start)
   (shr4 Start)
   (bvand Start Start)
   (bvor Start Start)
   (bvxor Start Start)
   (bvadd Start Start)
   (if0 Start Start Start)
))
))
(constraint (= (f #x6a417bfa141effff) #x6a417bfa141effff))
(constraint (= (f #x9a19aa3639a1731c) #x9a19aa3639a1731d))
(constraint (= (f #xbb8f8177049d16be) #xbb8f8177049d16bf))
(constraint (= (f #x34fb0e1ca10dd336) #x34fb0e1ca10dd337))
(constraint (= (f #x619d7d423c8d6401) #x619d7d423c8d6401))
(constraint (= (f #x7170bd10c7c4c2c4) #x7170bd10c7c4c2c5))
(constraint (= (f #x0c8d7659d8a6b63b) #x0c8d7659d8a6b63d))
(constraint (= (f #xa9084d35ea38f366) #xa9084d35ea38f367))
(constraint (= (f #xa2cd1bc056c66869) #xa2cd1bc056c6686b))
(constraint (= (f #x5bca9932a21ab05d) #x5bca9932a21ab05f))
(constraint (= (f #x00000000000fd846) #x00000000000fd846))
(constraint (= (f #x00000000000f5c06) #x00000000000f5c06))
(constraint (= (f #x00000000000effff) #x00000000000effff))
(constraint (= (f #x80000000000d0618) #x80000000000d0618))
(constraint (= (f #x00000000000d5f6b) #x00000000000d5f6b))
(constraint (= (f #x000000000000ffff) #x0000000000010001))
(constraint (= (f #x800000000000ffff) #x8000000000010001))
(constraint (= (f #x0000000000000002) #x0000000000000005))
(constraint (= (f #x8000000000000002) #x0000000000000005))
(constraint (= (f #x80000000000e5e1e) #x80000000000e5e1f))
(constraint (= (f #x800000000008970d) #x800000000008970f))
(constraint (= (f #x80000000000c27a0) #x80000000000c27a1))
(constraint (= (f #x80000000000c8238) #x80000000000c8239))
(constraint (= (f #x80000000000ec2b0) #x80000000000ec2b1))
(constraint (= (f #x800000000000f425) #x800000000000f427))
(constraint (= (f #x800000000000dae1) #x800000000000dae3))
(constraint (= (f #x800000000000a62f) #x800000000000a631))
(constraint (= (f #x000000000000ca62) #x000000000000ca63))
(constraint (= (f #x000000000000cb3a) #x000000000000cb3b))
(check-synth)
