experiments/eusolverbv/6/TrainGenes/11111110110101010111101111011101110010000100000/125_.out
(define-fun f ((x (BitVec 64))) (BitVec 64)
     (if0 (func28 (func49 x) x) (func49 (shl1 x)) (if0 (func29 #x0000000000000001 (func60 x)) (if0 (func29 x (func60 x)) (func49 (func60 x)) (if0 (func28 #x0000000000000001 (shr4 x)) (func49 x) (if0 (func30 #x0000000000000001 x) (if0 (func28 #x0000000000000001 (shr1 x)) (func49 x) x) x))) (func49 (func60 x)))))
1.5626493785530329
